\ Model MP
\ LP format - for model browsing. Use MPS format to capture full model detail.
Minimize
  theta
Subject To
 c_diesel_su-sd[0]: x_su[0] + x_sd[0] <= 1
 c_diesel_su-sd[1]: x_su[1] + x_sd[1] <= 1
 c_diesel_su-sd[2]: x_su[2] + x_sd[2] <= 1
 c_diesel_su-sd[3]: x_su[3] + x_sd[3] <= 1
 c_diesel_su-sd[4]: x_su[4] + x_sd[4] <= 1
 c_diesel_su-sd[5]: x_su[5] + x_sd[5] <= 1
 c_diesel_su-sd[6]: x_su[6] + x_sd[6] <= 1
 c_diesel_su-sd[7]: x_su[7] + x_sd[7] <= 1
 c_diesel_su-sd[8]: x_su[8] + x_sd[8] <= 1
 c_diesel_su-sd[9]: x_su[9] + x_sd[9] <= 1
 c_diesel_su-sd[10]: x_su[10] + x_sd[10] <= 1
 c_diesel_su-sd[11]: x_su[11] + x_sd[11] <= 1
 c_diesel_su-sd[12]: x_su[12] + x_sd[12] <= 1
 c_diesel_su-sd[13]: x_su[13] + x_sd[13] <= 1
 c_diesel_su-sd[14]: x_su[14] + x_sd[14] <= 1
 c_diesel_su-sd[15]: x_su[15] + x_sd[15] <= 1
 c_diesel_su-sd[16]: x_su[16] + x_sd[16] <= 1
 c_diesel_su-sd[17]: x_su[17] + x_sd[17] <= 1
 c_diesel_su-sd[18]: x_su[18] + x_sd[18] <= 1
 c_diesel_su-sd[19]: x_su[19] + x_sd[19] <= 1
 c_diesel_su-sd[20]: x_su[20] + x_sd[20] <= 1
 c_diesel_su-sd[21]: x_su[21] + x_sd[21] <= 1
 c_diesel_su-sd[22]: x_su[22] + x_sd[22] <= 1
 c_diesel_su-sd[23]: x_su[23] + x_sd[23] <= 1
 c_diesel_su-sd[24]: x_su[24] + x_sd[24] <= 1
 c_diesel_su-sd[25]: x_su[25] + x_sd[25] <= 1
 c_diesel_su-sd[26]: x_su[26] + x_sd[26] <= 1
 c_diesel_su-sd[27]: x_su[27] + x_sd[27] <= 1
 c_diesel_su-sd[28]: x_su[28] + x_sd[28] <= 1
 c_diesel_su-sd[29]: x_su[29] + x_sd[29] <= 1
 c_diesel_su-sd[30]: x_su[30] + x_sd[30] <= 1
 c_diesel_su-sd[31]: x_su[31] + x_sd[31] <= 1
 c_diesel_su-sd[32]: x_su[32] + x_sd[32] <= 1
 c_diesel_su-sd[33]: x_su[33] + x_sd[33] <= 1
 c_diesel_su-sd[34]: x_su[34] + x_sd[34] <= 1
 c_diesel_su-sd[35]: x_su[35] + x_sd[35] <= 1
 c_diesel_su-sd[36]: x_su[36] + x_sd[36] <= 1
 c_diesel_su-sd[37]: x_su[37] + x_sd[37] <= 1
 c_diesel_su-sd[38]: x_su[38] + x_sd[38] <= 1
 c_diesel_su-sd[39]: x_su[39] + x_sd[39] <= 1
 c_diesel_su-sd[40]: x_su[40] + x_sd[40] <= 1
 c_diesel_su-sd[41]: x_su[41] + x_sd[41] <= 1
 c_diesel_su-sd[42]: x_su[42] + x_sd[42] <= 1
 c_diesel_su-sd[43]: x_su[43] + x_sd[43] <= 1
 c_diesel_su-sd[44]: x_su[44] + x_sd[44] <= 1
 c_diesel_su-sd[45]: x_su[45] + x_sd[45] <= 1
 c_diesel_su-sd[46]: x_su[46] + x_sd[46] <= 1
 c_diesel_su-sd[47]: x_su[47] + x_sd[47] <= 1
 c_diesel_su-sd[48]: x_su[48] + x_sd[48] <= 1
 c_diesel_su-sd[49]: x_su[49] + x_sd[49] <= 1
 c_diesel_su-sd[50]: x_su[50] + x_sd[50] <= 1
 c_diesel_su-sd[51]: x_su[51] + x_sd[51] <= 1
 c_diesel_su-sd[52]: x_su[52] + x_sd[52] <= 1
 c_diesel_su-sd[53]: x_su[53] + x_sd[53] <= 1
 c_diesel_su-sd[54]: x_su[54] + x_sd[54] <= 1
 c_diesel_su-sd[55]: x_su[55] + x_sd[55] <= 1
 c_diesel_su-sd[56]: x_su[56] + x_sd[56] <= 1
 c_diesel_su-sd[57]: x_su[57] + x_sd[57] <= 1
 c_diesel_su-sd[58]: x_su[58] + x_sd[58] <= 1
 c_diesel_su-sd[59]: x_su[59] + x_sd[59] <= 1
 c_diesel_su-sd[60]: x_su[60] + x_sd[60] <= 1
 c_diesel_su-sd[61]: x_su[61] + x_sd[61] <= 1
 c_diesel_su-sd[62]: x_su[62] + x_sd[62] <= 1
 c_diesel_su-sd[63]: x_su[63] + x_sd[63] <= 1
 c_diesel_su-sd[64]: x_su[64] + x_sd[64] <= 1
 c_diesel_su-sd[65]: x_su[65] + x_sd[65] <= 1
 c_diesel_su-sd[66]: x_su[66] + x_sd[66] <= 1
 c_diesel_su-sd[67]: x_su[67] + x_sd[67] <= 1
 c_diesel_su-sd[68]: x_su[68] + x_sd[68] <= 1
 c_diesel_su-sd[69]: x_su[69] + x_sd[69] <= 1
 c_diesel_su-sd[70]: x_su[70] + x_sd[70] <= 1
 c_diesel_su-sd[71]: x_su[71] + x_sd[71] <= 1
 c_diesel_su-sd[72]: x_su[72] + x_sd[72] <= 1
 c_diesel_su-sd[73]: x_su[73] + x_sd[73] <= 1
 c_diesel_su-sd[74]: x_su[74] + x_sd[74] <= 1
 c_diesel_su-sd[75]: x_su[75] + x_sd[75] <= 1
 c_diesel_su-sd[76]: x_su[76] + x_sd[76] <= 1
 c_diesel_su-sd[77]: x_su[77] + x_sd[77] <= 1
 c_diesel_su-sd[78]: x_su[78] + x_sd[78] <= 1
 c_diesel_su-sd[79]: x_su[79] + x_sd[79] <= 1
 c_diesel_su-sd[80]: x_su[80] + x_sd[80] <= 1
 c_diesel_su-sd[81]: x_su[81] + x_sd[81] <= 1
 c_diesel_su-sd[82]: x_su[82] + x_sd[82] <= 1
 c_diesel_su-sd[83]: x_su[83] + x_sd[83] <= 1
 c_diesel_su-sd[84]: x_su[84] + x_sd[84] <= 1
 c_diesel_su-sd[85]: x_su[85] + x_sd[85] <= 1
 c_diesel_su-sd[86]: x_su[86] + x_sd[86] <= 1
 c_diesel_su-sd[87]: x_su[87] + x_sd[87] <= 1
 c_diesel_su-sd[88]: x_su[88] + x_sd[88] <= 1
 c_diesel_su-sd[89]: x_su[89] + x_sd[89] <= 1
 c_diesel_su-sd[90]: x_su[90] + x_sd[90] <= 1
 c_diesel_su-sd[91]: x_su[91] + x_sd[91] <= 1
 c_diesel_su-sd[92]: x_su[92] + x_sd[92] <= 1
 c_diesel_su-sd[93]: x_su[93] + x_sd[93] <= 1
 c_diesel_su-sd[94]: x_su[94] + x_sd[94] <= 1
 c_diesel_su-sd[95]: x_su[95] + x_sd[95] <= 1
 c_x_b[1]: x_su[1] - x_sd[1] + x_b[0] - x_b[1] = 0
 c_x_b[2]: x_su[2] - x_sd[2] + x_b[1] - x_b[2] = 0
 c_x_b[3]: x_su[3] - x_sd[3] + x_b[2] - x_b[3] = 0
 c_x_b[4]: x_su[4] - x_sd[4] + x_b[3] - x_b[4] = 0
 c_x_b[5]: x_su[5] - x_sd[5] + x_b[4] - x_b[5] = 0
 c_x_b[6]: x_su[6] - x_sd[6] + x_b[5] - x_b[6] = 0
 c_x_b[7]: x_su[7] - x_sd[7] + x_b[6] - x_b[7] = 0
 c_x_b[8]: x_su[8] - x_sd[8] + x_b[7] - x_b[8] = 0
 c_x_b[9]: x_su[9] - x_sd[9] + x_b[8] - x_b[9] = 0
 c_x_b[10]: x_su[10] - x_sd[10] + x_b[9] - x_b[10] = 0
 c_x_b[11]: x_su[11] - x_sd[11] + x_b[10] - x_b[11] = 0
 c_x_b[12]: x_su[12] - x_sd[12] + x_b[11] - x_b[12] = 0
 c_x_b[13]: x_su[13] - x_sd[13] + x_b[12] - x_b[13] = 0
 c_x_b[14]: x_su[14] - x_sd[14] + x_b[13] - x_b[14] = 0
 c_x_b[15]: x_su[15] - x_sd[15] + x_b[14] - x_b[15] = 0
 c_x_b[16]: x_su[16] - x_sd[16] + x_b[15] - x_b[16] = 0
 c_x_b[17]: x_su[17] - x_sd[17] + x_b[16] - x_b[17] = 0
 c_x_b[18]: x_su[18] - x_sd[18] + x_b[17] - x_b[18] = 0
 c_x_b[19]: x_su[19] - x_sd[19] + x_b[18] - x_b[19] = 0
 c_x_b[20]: x_su[20] - x_sd[20] + x_b[19] - x_b[20] = 0
 c_x_b[21]: x_su[21] - x_sd[21] + x_b[20] - x_b[21] = 0
 c_x_b[22]: x_su[22] - x_sd[22] + x_b[21] - x_b[22] = 0
 c_x_b[23]: x_su[23] - x_sd[23] + x_b[22] - x_b[23] = 0
 c_x_b[24]: x_su[24] - x_sd[24] + x_b[23] - x_b[24] = 0
 c_x_b[25]: x_su[25] - x_sd[25] + x_b[24] - x_b[25] = 0
 c_x_b[26]: x_su[26] - x_sd[26] + x_b[25] - x_b[26] = 0
 c_x_b[27]: x_su[27] - x_sd[27] + x_b[26] - x_b[27] = 0
 c_x_b[28]: x_su[28] - x_sd[28] + x_b[27] - x_b[28] = 0
 c_x_b[29]: x_su[29] - x_sd[29] + x_b[28] - x_b[29] = 0
 c_x_b[30]: x_su[30] - x_sd[30] + x_b[29] - x_b[30] = 0
 c_x_b[31]: x_su[31] - x_sd[31] + x_b[30] - x_b[31] = 0
 c_x_b[32]: x_su[32] - x_sd[32] + x_b[31] - x_b[32] = 0
 c_x_b[33]: x_su[33] - x_sd[33] + x_b[32] - x_b[33] = 0
 c_x_b[34]: x_su[34] - x_sd[34] + x_b[33] - x_b[34] = 0
 c_x_b[35]: x_su[35] - x_sd[35] + x_b[34] - x_b[35] = 0
 c_x_b[36]: x_su[36] - x_sd[36] + x_b[35] - x_b[36] = 0
 c_x_b[37]: x_su[37] - x_sd[37] + x_b[36] - x_b[37] = 0
 c_x_b[38]: x_su[38] - x_sd[38] + x_b[37] - x_b[38] = 0
 c_x_b[39]: x_su[39] - x_sd[39] + x_b[38] - x_b[39] = 0
 c_x_b[40]: x_su[40] - x_sd[40] + x_b[39] - x_b[40] = 0
 c_x_b[41]: x_su[41] - x_sd[41] + x_b[40] - x_b[41] = 0
 c_x_b[42]: x_su[42] - x_sd[42] + x_b[41] - x_b[42] = 0
 c_x_b[43]: x_su[43] - x_sd[43] + x_b[42] - x_b[43] = 0
 c_x_b[44]: x_su[44] - x_sd[44] + x_b[43] - x_b[44] = 0
 c_x_b[45]: x_su[45] - x_sd[45] + x_b[44] - x_b[45] = 0
 c_x_b[46]: x_su[46] - x_sd[46] + x_b[45] - x_b[46] = 0
 c_x_b[47]: x_su[47] - x_sd[47] + x_b[46] - x_b[47] = 0
 c_x_b[48]: x_su[48] - x_sd[48] + x_b[47] - x_b[48] = 0
 c_x_b[49]: x_su[49] - x_sd[49] + x_b[48] - x_b[49] = 0
 c_x_b[50]: x_su[50] - x_sd[50] + x_b[49] - x_b[50] = 0
 c_x_b[51]: x_su[51] - x_sd[51] + x_b[50] - x_b[51] = 0
 c_x_b[52]: x_su[52] - x_sd[52] + x_b[51] - x_b[52] = 0
 c_x_b[53]: x_su[53] - x_sd[53] + x_b[52] - x_b[53] = 0
 c_x_b[54]: x_su[54] - x_sd[54] + x_b[53] - x_b[54] = 0
 c_x_b[55]: x_su[55] - x_sd[55] + x_b[54] - x_b[55] = 0
 c_x_b[56]: x_su[56] - x_sd[56] + x_b[55] - x_b[56] = 0
 c_x_b[57]: x_su[57] - x_sd[57] + x_b[56] - x_b[57] = 0
 c_x_b[58]: x_su[58] - x_sd[58] + x_b[57] - x_b[58] = 0
 c_x_b[59]: x_su[59] - x_sd[59] + x_b[58] - x_b[59] = 0
 c_x_b[60]: x_su[60] - x_sd[60] + x_b[59] - x_b[60] = 0
 c_x_b[61]: x_su[61] - x_sd[61] + x_b[60] - x_b[61] = 0
 c_x_b[62]: x_su[62] - x_sd[62] + x_b[61] - x_b[62] = 0
 c_x_b[63]: x_su[63] - x_sd[63] + x_b[62] - x_b[63] = 0
 c_x_b[64]: x_su[64] - x_sd[64] + x_b[63] - x_b[64] = 0
 c_x_b[65]: x_su[65] - x_sd[65] + x_b[64] - x_b[65] = 0
 c_x_b[66]: x_su[66] - x_sd[66] + x_b[65] - x_b[66] = 0
 c_x_b[67]: x_su[67] - x_sd[67] + x_b[66] - x_b[67] = 0
 c_x_b[68]: x_su[68] - x_sd[68] + x_b[67] - x_b[68] = 0
 c_x_b[69]: x_su[69] - x_sd[69] + x_b[68] - x_b[69] = 0
 c_x_b[70]: x_su[70] - x_sd[70] + x_b[69] - x_b[70] = 0
 c_x_b[71]: x_su[71] - x_sd[71] + x_b[70] - x_b[71] = 0
 c_x_b[72]: x_su[72] - x_sd[72] + x_b[71] - x_b[72] = 0
 c_x_b[73]: x_su[73] - x_sd[73] + x_b[72] - x_b[73] = 0
 c_x_b[74]: x_su[74] - x_sd[74] + x_b[73] - x_b[74] = 0
 c_x_b[75]: x_su[75] - x_sd[75] + x_b[74] - x_b[75] = 0
 c_x_b[76]: x_su[76] - x_sd[76] + x_b[75] - x_b[76] = 0
 c_x_b[77]: x_su[77] - x_sd[77] + x_b[76] - x_b[77] = 0
 c_x_b[78]: x_su[78] - x_sd[78] + x_b[77] - x_b[78] = 0
 c_x_b[79]: x_su[79] - x_sd[79] + x_b[78] - x_b[79] = 0
 c_x_b[80]: x_su[80] - x_sd[80] + x_b[79] - x_b[80] = 0
 c_x_b[81]: x_su[81] - x_sd[81] + x_b[80] - x_b[81] = 0
 c_x_b[82]: x_su[82] - x_sd[82] + x_b[81] - x_b[82] = 0
 c_x_b[83]: x_su[83] - x_sd[83] + x_b[82] - x_b[83] = 0
 c_x_b[84]: x_su[84] - x_sd[84] + x_b[83] - x_b[84] = 0
 c_x_b[85]: x_su[85] - x_sd[85] + x_b[84] - x_b[85] = 0
 c_x_b[86]: x_su[86] - x_sd[86] + x_b[85] - x_b[86] = 0
 c_x_b[87]: x_su[87] - x_sd[87] + x_b[86] - x_b[87] = 0
 c_x_b[88]: x_su[88] - x_sd[88] + x_b[87] - x_b[88] = 0
 c_x_b[89]: x_su[89] - x_sd[89] + x_b[88] - x_b[89] = 0
 c_x_b[90]: x_su[90] - x_sd[90] + x_b[89] - x_b[90] = 0
 c_x_b[91]: x_su[91] - x_sd[91] + x_b[90] - x_b[91] = 0
 c_x_b[92]: x_su[92] - x_sd[92] + x_b[91] - x_b[92] = 0
 c_x_b[93]: x_su[93] - x_sd[93] + x_b[92] - x_b[93] = 0
 c_x_b[94]: x_su[94] - x_sd[94] + x_b[93] - x_b[94] = 0
 c_x_b[95]: x_su[95] - x_sd[95] + x_b[94] - x_b[95] = 0
Bounds
 theta free
Binaries
 x_su[0] x_su[1] x_su[2] x_su[3] x_su[4] x_su[5] x_su[6] x_su[7] x_su[8]
 x_su[9] x_su[10] x_su[11] x_su[12] x_su[13] x_su[14] x_su[15] x_su[16]
 x_su[17] x_su[18] x_su[19] x_su[20] x_su[21] x_su[22] x_su[23] x_su[24]
 x_su[25] x_su[26] x_su[27] x_su[28] x_su[29] x_su[30] x_su[31] x_su[32]
 x_su[33] x_su[34] x_su[35] x_su[36] x_su[37] x_su[38] x_su[39] x_su[40]
 x_su[41] x_su[42] x_su[43] x_su[44] x_su[45] x_su[46] x_su[47] x_su[48]
 x_su[49] x_su[50] x_su[51] x_su[52] x_su[53] x_su[54] x_su[55] x_su[56]
 x_su[57] x_su[58] x_su[59] x_su[60] x_su[61] x_su[62] x_su[63] x_su[64]
 x_su[65] x_su[66] x_su[67] x_su[68] x_su[69] x_su[70] x_su[71] x_su[72]
 x_su[73] x_su[74] x_su[75] x_su[76] x_su[77] x_su[78] x_su[79] x_su[80]
 x_su[81] x_su[82] x_su[83] x_su[84] x_su[85] x_su[86] x_su[87] x_su[88]
 x_su[89] x_su[90] x_su[91] x_su[92] x_su[93] x_su[94] x_su[95] x_sd[0]
 x_sd[1] x_sd[2] x_sd[3] x_sd[4] x_sd[5] x_sd[6] x_sd[7] x_sd[8] x_sd[9]
 x_sd[10] x_sd[11] x_sd[12] x_sd[13] x_sd[14] x_sd[15] x_sd[16] x_sd[17]
 x_sd[18] x_sd[19] x_sd[20] x_sd[21] x_sd[22] x_sd[23] x_sd[24] x_sd[25]
 x_sd[26] x_sd[27] x_sd[28] x_sd[29] x_sd[30] x_sd[31] x_sd[32] x_sd[33]
 x_sd[34] x_sd[35] x_sd[36] x_sd[37] x_sd[38] x_sd[39] x_sd[40] x_sd[41]
 x_sd[42] x_sd[43] x_sd[44] x_sd[45] x_sd[46] x_sd[47] x_sd[48] x_sd[49]
 x_sd[50] x_sd[51] x_sd[52] x_sd[53] x_sd[54] x_sd[55] x_sd[56] x_sd[57]
 x_sd[58] x_sd[59] x_sd[60] x_sd[61] x_sd[62] x_sd[63] x_sd[64] x_sd[65]
 x_sd[66] x_sd[67] x_sd[68] x_sd[69] x_sd[70] x_sd[71] x_sd[72] x_sd[73]
 x_sd[74] x_sd[75] x_sd[76] x_sd[77] x_sd[78] x_sd[79] x_sd[80] x_sd[81]
 x_sd[82] x_sd[83] x_sd[84] x_sd[85] x_sd[86] x_sd[87] x_sd[88] x_sd[89]
 x_sd[90] x_sd[91] x_sd[92] x_sd[93] x_sd[94] x_sd[95] x_b[0] x_b[1] x_b[2]
 x_b[3] x_b[4] x_b[5] x_b[6] x_b[7] x_b[8] x_b[9] x_b[10] x_b[11] x_b[12]
 x_b[13] x_b[14] x_b[15] x_b[16] x_b[17] x_b[18] x_b[19] x_b[20] x_b[21]
 x_b[22] x_b[23] x_b[24] x_b[25] x_b[26] x_b[27] x_b[28] x_b[29] x_b[30]
 x_b[31] x_b[32] x_b[33] x_b[34] x_b[35] x_b[36] x_b[37] x_b[38] x_b[39]
 x_b[40] x_b[41] x_b[42] x_b[43] x_b[44] x_b[45] x_b[46] x_b[47] x_b[48]
 x_b[49] x_b[50] x_b[51] x_b[52] x_b[53] x_b[54] x_b[55] x_b[56] x_b[57]
 x_b[58] x_b[59] x_b[60] x_b[61] x_b[62] x_b[63] x_b[64] x_b[65] x_b[66]
 x_b[67] x_b[68] x_b[69] x_b[70] x_b[71] x_b[72] x_b[73] x_b[74] x_b[75]
 x_b[76] x_b[77] x_b[78] x_b[79] x_b[80] x_b[81] x_b[82] x_b[83] x_b[84]
 x_b[85] x_b[86] x_b[87] x_b[88] x_b[89] x_b[90] x_b[91] x_b[92] x_b[93]
 x_b[94] x_b[95]
End
